50 8
528 360
467 310
627 349
516 724
193 526
933 174
632 356
743 776
295 449
667 366
65 427
220 552
619 672
853 172
235 492
103 403
696 394
520 616
576 294
209 418
680 394
566 308
552 208
789 422
714 787
484 330
170 363
95 412
644 438
614 332
867 231
755 770
567 637
851 113
62 522
619 709
525 808
931 680
609 257
511 434
195 121
49 213
770 641
461 773
871 659
232 355
609 750
246 570
498 331
794 351
